; benchmark generated from python API
(set-info :status unknown)
(declare-fun S_4 () Real)
(declare-fun S_2 () Real)
(declare-fun C () Real)
(declare-fun S_1 () Real)
(declare-fun S_5 () Real)
(declare-fun S_3 () Real)
(declare-fun B () Real)
(declare-fun S_0 () Real)
(declare-fun A_0 () Real)
(declare-fun L_0 () Real)
(declare-fun L0 () Real)
(declare-fun A_5 () Real)
(declare-fun A_4 () Real)
(declare-fun A_3 () Real)
(declare-fun A_1 () Real)
(declare-fun A_2 () Real)
(declare-fun Q_5 () Real)
(assert
 (let (($x44592 (not (>= (+ (* 3.0 C) (* (- 1.0) B)) 0.0))))
 (let (($x42 (>= L0 0.0)))
 (let (($x721 (>= C 5.0)))
 (let (($x44459 (<= 0.0 (+ C A_4 (* (- 1.0) A_5)))))
 (let (($x43622 (<= (+ (* (- 2.0) C) (* (- 1.0) A_1) A_3) 0.0)))
 (let (($x44348 (not $x43622)))
 (let (($x43766 (<= (+ (* (- 1.0) C) A_2 (* (- 1.0) A_1)) 0.0)))
 (let (($x44324 (not $x43766)))
 (let (($x44043 (<= 0.0 (+ (* 4.0 C) A_1 (* (- 1.0) A_5)))))
 (let (($x3127 (= B Q_5)))
 (let ((?x380 (* (- 1.0) C)))
 (let ((?x594 (* (- 1.0) L_0)))
 (let ((?x616 (* (- 1.0) Q_5)))
 (let ((?x463 (+ ?x616 A_5 ?x594 ?x380)))
 (let (($x297 (>= S_5 ?x463)))
 (let ((?x981 (* (- 4.0) C)))
 (let ((?x424 (+ ?x616 A_5 ?x594 ?x981)))
 (let (($x44356 (>= S_2 ?x424)))
 (let (($x3163 (<= (+ (* (- 1.0) B) A_1 ?x594 (* (- 1.0) S_2)) 0.0)))
 (let (($x3272 (not $x3163)))
 (let (($x44753 (<= (+ (* (- 1.0) B) (* (- 3.0) C) ?x594 (* (- 1.0) S_2) A_4) 0.0)))
 (let (($x46355 (not $x44753)))
 (let (($x44467 (<= 0.0 (+ (* 2.0 C) A_3 (* (- 1.0) A_5)))))
 (let (($x45138 (not $x44467)))
 (let (($x44738 (<= (+ (* (- 1.0) B) (* (- 2.0) C) ?x594 (* (- 1.0) S_2) A_3) 0.0)))
 (let (($x44978 (not $x44738)))
 (let (($x46431 (<= 0.0 (+ (* 3.0 C) A_2 (* (- 1.0) A_5)))))
 (let (($x46435 (not $x46431)))
 (let (($x44847 (<= (+ (* (- 1.0) B) (* (- 2.0) C) ?x594 (* (- 1.0) S_3) A_4) 0.0)))
 (let (($x44854 (not $x44847)))
 (let (($x44579 (<= (+ C (* (- 1.0) B) A_1 ?x594 (* (- 1.0) S_3)) 0.0)))
 (let (($x44810 (not $x44579)))
 (let ((?x603 (* (- 3.0) C)))
 (let ((?x548 (+ ?x616 A_5 ?x594 ?x603)))
 (let (($x44147 (>= S_3 ?x548)))
 (let (($x44611 (<= (+ (* 3.0 C) (* (- 1.0) B) A_1 ?x594 (* (- 1.0) S_5)) 0.0)))
 (let (($x44920 (not $x44611)))
 (let (($x44339 (not $x44043)))
 (let (($x5140 (<= (+ (* (- 1.0) B) ?x594 (* (- 1.0) S_5) A_4) 0.0)))
 (let (($x5146 (not $x5140)))
 (let (($x44793 (<= (+ (* (- 1.0) B) ?x981 ?x594 A_4 (* (- 1.0) S_1)) 0.0)))
 (let (($x45623 (not $x44793)))
 (let (($x44393 (<= (+ ?x380 (* (- 1.0) B) A_1 ?x594 (* (- 1.0) S_1)) 0.0)))
 (let (($x44924 (not $x44393)))
 (let ((?x1378 (* (- 5.0) C)))
 (let ((?x43969 (+ ?x616 A_5 ?x594 ?x1378)))
 (let (($x44604 (>= S_1 ?x43969)))
 (let (($x45145 (not (<= (+ (* (- 1.0) B) ?x380 ?x594 (* (- 1.0) S_3) A_3) 0.0))))
 (let ((?x628 (* (- 1.0) A_3)))
 (let ((?x44460 (+ C A_2 ?x628)))
 (let (($x44461 (<= 0.0 ?x44460)))
 (let (($x45367 (= (+ ?x380 B (* (- 1.0) A_4) ?x616 A_5) 0.0)))
 (let (($x44162 (= (+ ?x981 (* (- 1.0) A_1) B ?x616 A_5) 0.0)))
 (let (($x45697 (not $x44459)))
 (let (($x44457 (<= (+ ?x380 A_4 ?x628) 0.0)))
 (let (($x44350 (<= (+ ?x603 (* (- 1.0) A_1) A_4) 0.0)))
 (let (($x46844 (<= 0.0 (+ ?x380 A_5 (* (- 1.0) A_4)))))
 (let (($x47049 (not $x46844)))
 (let (($x442 (>= S_0 (+ ?x616 A_5 ?x594 (* (- 6.0) C)))))
 (let (($x46622 (not (<= (+ (* 3.0 C) A_1 (* (- 1.0) A_4)) 0.0))))
 (let (($x44972 (= (+ (* 2.0 C) Q_5 (* (- 1.0) B) (* (- 1.0) A_5) A_3) 0.0)))
 (let (($x46739 (<= 0.0 (+ (* (- 2.0) C) A_5 ?x628))))
 (let (($x45100 (<= (+ (* (- 1.0) B) C ?x594 (* (- 1.0) S_5) A_3) 0.0)))
 (let (($x46932 (<= 0.0 (+ ?x981 A_5 (* (- 1.0) A_1)))))
 (let (($x44482 (not $x44461)))
 (let (($x43826 (<= (+ A_1 Q_5 (* (- 1.0) A_5) (* 4.0 C)) B)))
 (let (($x43871 (not $x43826)))
 (let (($x46933 (not $x46932)))
 (let (($x45117 (<= (+ (* (- 1.0) B) ?x603 ?x594 A_3 (* (- 1.0) S_1)) 0.0)))
 (let (($x45118 (not $x45117)))
 (let (($x45124 (<= (+ C (* (- 1.0) A_4) A_3) 0.0)))
 (let (($x44651 (<= (+ (* (- 1.0) B) ?x1378 ?x594 (* (- 1.0) S_0) A_4) 0.0)))
 (let (($x45528 (not $x44651)))
 (let (($x44856 (<= (+ (* (- 1.0) B) ?x981 (* (- 1.0) A_0) A_4) 0.0)))
 (let ((?x980 (* (- 2.0) C)))
 (let ((?x448 (+ ?x616 A_5 ?x594 ?x980)))
 (let (($x586 (>= S_4 ?x448)))
 (let (($x43887 (<= (+ B ?x981 (* (- 1.0) A_1) A_5) 0.0)))
 (let (($x1182 (<= Q_5 0.0)))
 (let (($x1183 (not $x1182)))
 (let (($x45975 (= (+ (* 3.0 C) Q_5 A_2 (* (- 1.0) B) (* (- 1.0) A_5)) 0.0)))
 (let (($x44683 (<= (+ (* (- 1.0) B) ?x603 A_2 ?x594 (* (- 1.0) S_0)) 0.0)))
 (let (($x45477 (not $x44683)))
 (let (($x44782 (not (<= (+ (* (- 1.0) B) ?x981 ?x594 (* (- 1.0) S_0) A_3) 0.0))))
 (let (($x102930 (or (not (<= (+ (* (- 1.0) B) A_2 ?x594 (* (- 1.0) S_3)) 0.0)) $x43766 $x44147 $x44854 $x45145 $x46435)))
 (let (($x45173 (<= (+ (* (- 1.0) B) ?x980 A_2 ?x594 (* (- 1.0) S_1)) 0.0)))
 (let (($x46325 (not $x45173)))
 (let (($x5384 (<= (+ (* (- 1.0) B) A_2 ?x594 (* (- 1.0) S_3)) 0.0)))
 (let (($x44689 (<= (+ (* (- 1.0) B) C A_2 ?x594 (* (- 1.0) S_4)) 0.0)))
 (let (($x45196 (<= (+ (* (- 1.0) B) ?x980 A_2 (* (- 1.0) A_0)) 0.0)))
 (let (($x44709 (<= (+ (* (- 1.0) B) ?x380 A_2 ?x594 (* (- 1.0) S_2)) 0.0)))
 (let (($x45110 (<= (+ (* (- 1.0) B) (* 2.0 C) A_2 ?x594 (* (- 1.0) S_5)) 0.0)))
 (let (($x46335 (not $x45110)))
 (let (($x45101 (not $x45100)))
 (let (($x45488 (not $x44689)))
 (let (($x45148 (not (<= (+ (* (- 1.0) B) ?x380 ?x594 A_4 (* (- 1.0) S_4)) 0.0))))
 (let (($x102995 (or $x586 (not (<= (+ (* (- 1.0) B) ?x594 A_3 (* (- 1.0) S_4)) 0.0)) $x43766 $x45148 $x45488 $x46435)))
 (let (($x46154 (not $x45196)))
 (let (($x45708 (not $x44856)))
 (let (($x295 (<= (+ ?x616 A_5 ?x1378) A_0)))
 (let (($x98733 (or $x295 $x43766 $x45138 (not (<= (+ (* (- 1.0) B) ?x603 (* (- 1.0) A_0) A_3) 0.0)) $x45708 $x46154)))
 (let (($x99985 (or $x297 $x5146 $x43766 $x44457 (not (<= (+ (* 2.0 C) (* (- 1.0) A_4) A_2) 0.0)) $x45697)))
 (let (($x44827 (<= 0.0 (+ (* 2.0 C) (* (- 1.0) B) S_5 (* (- 1.0) S_4)))))
 (let (($x44587 (not (<= 0.0 (+ ?x380 (* (- 1.0) B) L_0 S_5 (* (- 1.0) A_0))))))
 (let (($x1580 (= Q_5 0.0)))
 (let (($x43901 (or $x1183 $x1580)))
 (let (($x41 (>= L_0 L0)))
 (let (($x131 (>= S_1 S_0)))
 (let (($x134 (>= S_2 S_1)))
 (let (($x137 (>= S_3 S_2)))
 (let (($x140 (>= S_4 S_3)))
 (let (($x143 (>= S_5 S_4)))
 (let (($x146 (>= A_2 A_1)))
 (let (($x147 (>= A_3 A_2)))
 (let (($x148 (>= A_4 A_3)))
 (let (($x149 (>= A_5 A_4)))
 (and (<= (+ A_0 ?x594) S_5) $x149 $x148 $x147 $x146 $x143 $x140 $x137 $x134 $x131 $x41 (<= Q_5 B) (<= (+ A_4 Q_5 (* (- 1.0) A_5) C) B) (not (<= (+ A_1 ?x594) S_5)) (<= (+ A_3 Q_5 (* (- 1.0) A_5) (* 2.0 C)) B) $x43901 (<= (+ ?x980 S_2 (* (- 1.0) S_1)) 0.0) (<= (+ ?x980 (* (- 1.0) S_0) S_1) 0.0) (<= (+ ?x380 L_0 (* (- 1.0) A_0) S_1) 0.0) (<= (+ ?x980 L_0 S_2 (* (- 1.0) A_0)) 0.0) (<= (+ ?x603 S_2 (* (- 1.0) S_0)) 0.0) (<= (+ (* 2.0 C) S_0 (* (- 1.0) S_3)) 0.0) (or (<= S_4 ?x463) $x1182) (or (<= S_1 ?x424) $x1182) (<= (+ A_2 Q_5 (* (- 1.0) A_5) (* 3.0 C)) B) (or $x1182 $x43826) (or $x1182 (<= S_0 ?x43969)) (<= (+ (* 4.0 C) (* (- 1.0) S_5) S_0) 0.0) (or $x442 $x3127 $x43871 $x44162 $x44324 $x44348 (not $x44350)) (or $x295 $x3127 $x43871 $x44162 $x44324 $x44348 (not $x44350)) (or $x586 $x3127 $x43871 $x44162 $x44324 $x44348 (not $x44350)) (not (<= 0.0 (+ C (* (- 1.0) B) S_5 (* (- 1.0) S_3)))) $x44587 (<= (+ ?x603 L_0 (* (- 1.0) A_0) S_3) 0.0) (<= (+ (* 3.0 C) S_0 (* (- 1.0) S_4)) 0.0) (not $x44827) (<= (+ C (* (- 1.0) S_2) S_0) 0.0) (<= (+ ?x980 S_5 (* (- 1.0) S_4)) 0.0) (<= (+ ?x981 (* (- 1.0) S_0) S_3) 0.0) (<= (+ L_0 ?x981 (* (- 1.0) A_0) S_4) 0.0) (not (<= 0.0 (+ ?x980 (* (- 1.0) B) S_5 (* (- 1.0) S_0)))) (<= (+ ?x981 (* (- 1.0) S_2) S_5) 0.0) (<= (+ (* (- 6.0) C) S_5 (* (- 1.0) S_0)) 0.0) (<= (+ ?x1378 (* (- 1.0) S_0) S_4) 0.0) (<= (+ ?x603 S_5 (* (- 1.0) S_3)) 0.0) (or (<= S_3 ?x448) $x1182) (<= S_5 (+ ?x594 A_5 ?x616)) (not (<= 0.0 (+ ?x380 (* (- 1.0) B) S_5 (* (- 1.0) S_1)))) (<= (+ ?x603 S_3 (* (- 1.0) S_1)) 0.0) (or $x3127 $x44043 $x44147 $x44324 $x44459 $x44467) (<= (+ ?x1378 L_0 S_5 (* (- 1.0) A_0)) 0.0) (or (<= S_2 ?x548) $x1182) (<= (+ ?x981 (* (- 1.0) S_1) S_4) 0.0) $x99985 (or $x3127 $x43766 $x44147 $x44457 $x45367 $x45975) (or $x3127 $x43766 $x44457 $x44856 $x45367 $x46154) (or $x295 $x43766 $x44457 $x45697 $x45708 $x46154) (<= (+ ?x1378 S_5 (* (- 1.0) S_1)) 0.0) (or $x3127 $x43766 $x44147 $x44459 $x44467 $x46431) (or $x297 $x3127 $x43766 $x44459 $x44467 $x46431) (or $x295 $x43766 $x44459 $x44467 $x46154 $x46435) (or $x295 $x3127 $x43766 $x44459 $x44467 $x46431) (or $x3127 $x43766 $x44356 $x44459 $x44467 $x46431) (or $x442 $x3127 $x43766 $x44459 $x44467 $x45477) (or $x586 $x3127 $x43766 $x44459 $x44467 $x45488) (or $x3127 $x43766 $x44459 $x44467 $x44604 $x46325) (or $x586 $x3127 $x43766 $x44457 $x45367 $x45975) (or $x3127 $x43766 $x44457 $x44793 $x46325 $x47049) (or $x43766 $x44457 $x44793 $x45367 $x46325 $x46844) (or $x43766 $x44457 $x44604 $x45623 $x45697 $x46325) (or $x43766 $x44356 $x44459 $x44482 (not $x44709) $x46435) (or $x1183 $x43766) (or $x442 $x3127 $x43766 $x44457 $x45367 $x45477) (or $x3127 $x5140 $x43766 $x44457 $x45367 $x46335) (or $x3127 $x43766 $x44457 $x44753 $x45367 (not $x44709)) (or $x43766 $x44356 $x44457 $x45697 $x46355 (not $x44709)) $x98733 (or $x43766 $x44356 $x44978 $x45138 $x46355 (not $x44709)) $x102995 (or $x3127 $x43766 $x44972 $x45110 $x45367 $x45975) (or $x297 $x5146 $x43766 $x45101 $x46335 $x46435) (or $x3127 $x43766 $x44482 $x44709 $x45367 $x45975) (or $x3127 $x43766 $x44482 $x45196 $x45367 $x45975) (or $x3127 $x43766 $x44482 $x44689 $x45367 $x45975) (or $x3127 $x5384 $x43766 $x44482 $x45367 $x45975) (or $x3127 $x43766 $x44972 $x45173 $x45367 $x45975) (or $x43766 $x44482 $x44604 $x45623 $x46325 $x46435) $x102930 (or $x442 $x43766 $x44782 $x45477 $x45528 $x46435) (or $x3127 $x43766 $x44482 $x44683 $x45367 $x45975) (or (not $x1580) (<= Q_5 ?x44460)) (or (not $x1580) $x43887 $x44393) (or $x297 (not $x1580) $x43887) (or (not $x1580) $x43887 $x44147) (or $x1183 $x44604 $x44924) (or $x1183 $x43887 $x44356) (or $x3127 $x44043 $x44324 $x44459 $x44467 $x44604) (or $x3127 $x43622 $x44459 $x44461 $x44972 $x45117) (or $x3127 (not (<= A_4 (+ ?x616 A_5 ?x380)))) (or $x295 $x3127 $x44324 $x44457 $x44459 $x46933) (or $x297 $x3127 $x43622 $x44459 $x44461 $x44972) (or $x3127 $x3163 $x44162 $x44348 $x44461 $x45367) (or $x3127 $x44162 $x44348 $x44461 $x44579 $x45367) (or $x3127 $x44162 $x44348 (not $x44350) $x44393 $x44461) (or $x43622 $x44339 $x44461 $x44972 $x45117 $x45124) (or $x43622 $x44339 $x44461 $x44604 $x45118 $x45124) (or $x586 $x3127 $x43622 $x44461 $x44972 $x45367) (or $x586 $x3127 $x44324 $x44350 $x44457 $x45367) (or $x297 $x3127 $x44324 $x44350 $x44457 $x45367) (or $x3127 $x44324 $x44350 $x44457 $x44856 $x47049) (or $x295 $x44324 $x44350 $x44457 $x45697 $x45708) (or $x44324 $x44350 $x44457 $x44856 $x45367 $x46844) (or $x44324 $x44350 $x44356 $x44457 $x45367 $x46844) (or $x3127 $x44324 $x44350 $x44457 $x44753 $x47049) (or $x44324 $x44350 $x44356 $x44457 $x45697 $x46355) (or $x44324 $x44350 $x44457 $x44793 $x45367 $x46844) (or $x44043 $x44324 $x44457 $x44604 $x45623 $x46844) (or $x44043 $x44324 $x44457 $x44651 $x45367 $x46844) (or $x442 $x44043 $x44324 $x44457 $x45528 $x46844) (or $x44324 $x44339 $x44350 $x44457 $x44651 $x45367) (or $x442 $x44324 $x44339 $x44350 $x44457 $x45528) (or $x44043 $x44324 $x44457 $x44847 $x45367 $x46844) (or $x44043 $x44147 $x44324 $x44457 $x44854 $x46844) (or $x44324 $x44339 $x44350 $x44457 $x44847 $x45367) (or $x44147 $x44324 $x44339 $x44459 $x44482 $x44810) (or $x43622 $x44339 $x44461 $x44793 $x45367 (not $x45124)) (or $x43622 $x44339 $x44461 $x44604 (not $x45124) $x45623) (or $x44461 $x44604 $x44972 $x45124 $x46739 $x46933) (or $x44461 $x44604 $x45118 $x45138 $x45623 $x46933) (or $x3127 $x44461 $x44793 $x44972 $x45367 $x46933) (or $x3127 $x3163 $x43871 $x44162 $x44324 $x44482 $x45367) (or $x3127 $x43871 $x44162 $x44324 $x44482 $x44611 $x45367) (or $x3127 $x43871 $x44162 $x44324 $x44393 $x44482 $x45367) (or $x44147 $x44324 $x44339 $x44457 $x44810 $x44854) (or $x3127 $x43871 $x44162 $x44324 $x44482 $x44579 $x45367) (or $x44324 $x44339 $x44356 $x44457 $x46355 $x46622) (or $x3272 $x44324 $x44356 $x44457 $x46355 $x46932) (or $x3127 $x5140 $x44461 $x44920 $x44972 $x45367) (or $x297 $x5146 $x44461 $x44920 $x45101 $x45138) (or $x3127 $x43622 $x44461 $x44611 $x44972 $x45367) (or $x295 $x3127 $x43622 $x44461 $x44972 $x45367) (or $x5146 $x43622 $x44461 $x44972 $x45100 $x46739) (or $x3127 $x43622 $x44147 $x44461 $x44972 $x45367) (or $x442 $x3127 $x43622 $x44461 $x44972 $x45367) (or $x3127 $x43622 $x44356 $x44461 $x44972 $x45367) (or $x44147 $x44339 $x44459 $x44461 $x44810 $x45145) (or $x3127 $x44147 $x44324 $x44457 $x46622 $x47049) (or $x442 $x3127 $x44324 $x44350 $x44457 $x47049) (or $x3127 $x44324 $x44350 $x44457 $x44793 $x47049) (or $x44324 $x44350 $x44457 $x44604 $x45623 $x45697) (or $x3127 $x44162 $x44348 $x44461 $x44611 $x45367) (or $x44147 $x44461 $x44810 $x44854 $x45138 $x45145) (or $x44324 $x44339 $x44348 $x44604 $x44924 $x45623) (or $x297 $x5146 $x44324 $x44339 $x44348 $x44920) (or $x44147 $x44324 $x44348 $x44810 $x44854 $x46435) (or $x3272 $x44324 $x44356 $x44978 $x45138 $x46355) (or $x3127 $x3272 $x44324 $x44348 $x44356 $x44459) (or $x297 $x3127 $x44043 $x44324 $x44348 $x44459) $x721 $x42 (<= (+ L_0 (* (- 1.0) A_0) S_0) 0.0) (not (>= (+ (* (- 1.0) B) (* (- 1.0) S_2) S_5) 0.0)) (<= (+ C (* (- 1.0) S_3) S_1) 0.0) (<= (+ (* 2.0 C) S_2 (* (- 1.0) S_5)) 0.0) (<= (+ ?x980 (* (- 1.0) S_3) S_4) 0.0) (<= (+ C (* (- 1.0) S_5) S_3) 0.0) $x44592 (<= (+ (* 2.0 C) S_1 (* (- 1.0) S_4)) 0.0) (<= (+ C S_2 (* (- 1.0) S_4)) 0.0) (<= (+ ?x980 (* (- 1.0) S_2) S_3) 0.0) (<= (+ (* 3.0 C) (* (- 1.0) S_5) S_1) 0.0) (<= (+ ?x603 (* (- 1.0) S_2) S_4) 0.0)))))))))))))))))))))))))))))))))))))))))))))))))))))))))))))))))))))))))))))))))))))))))))))))))))))))))))))))))))))))
(check-sat)
